SDVRP instances/custom_instances/p10_22_split0.vrp
NAME:p10_22_split
BEST_KNOWN: 0
COMMENT: 0
DIMENSION: 920
CAPACITY: 200
EDGE_WEIGHT_FORMAT: FUNCTION
EDGE_WEIGHT_TYPE: EXACT_2D
NODE_COORD_SECTION
1 0.00000 0.00000
2 46 -21
3 46 -21
4 46 -21
5 46 -21
6 46 -21
7 46 -21
8 -50 49
9 -50 49
10 -50 49
11 -50 49
12 -50 49
13 -50 49
14 21 -28
15 21 -28
16 21 -28
17 21 -28
18 17 -25
19 17 -25
20 17 -25
21 17 -25
22 17 -25
23 17 -25
24 17 -25
25 -47 40
26 -47 40
27 27 35
28 27 35
29 27 35
30 27 35
31 27 35
32 27 35
33 27 35
34 20 42
35 20 42
36 20 42
37 20 42
38 20 42
39 20 42
40 10 -37
41 10 -37
42 10 -37
43 10 -37
44 40 -11
45 40 -11
46 40 -11
47 40 -11
48 7 -9
49 7 -9
50 7 -9
51 7 -9
52 3 21
53 3 21
54 3 21
55 3 21
56 37 37
57 37 37
58 37 37
59 -3 14
60 -3 14
61 -3 14
62 -3 14
63 -3 14
64 -3 14
65 36 -49
66 36 -49
67 36 -49
68 36 -49
69 36 -49
70 36 -49
71 9 -39
72 9 -39
73 9 -39
74 9 -39
75 9 -39
76 -33 45
77 -33 45
78 -33 45
79 -33 45
80 -33 45
81 -33 45
82 -33 45
83 1 -17
84 1 -17
85 1 -17
86 34 44
87 34 44
88 34 44
89 34 44
90 34 44
91 26 44
92 26 44
93 35 -1
94 35 -1
95 35 -1
96 35 -1
97 35 -1
98 35 -1
99 -9 -4
100 30 -12
101 30 -12
102 30 -12
103 30 -12
104 30 -12
105 -22 17
106 -22 17
107 -22 17
108 -50 2
109 -50 2
110 -50 2
111 -50 2
112 -50 2
113 -50 2
114 -50 2
115 35 -39
116 35 -39
117 35 -39
118 35 -39
119 -48 23
120 -48 23
121 32 8
122 32 8
123 26 0
124 26 0
125 26 0
126 26 0
127 -48 15
128 -48 15
129 -48 15
130 -48 15
131 16 -35
132 16 -35
133 16 -35
134 16 -35
135 29 -27
136 29 -27
137 29 -27
138 29 -27
139 29 -27
140 29 -27
141 24 -49
142 24 -49
143 24 -49
144 24 -49
145 -2 -11
146 -2 -11
147 -2 -11
148 -2 -11
149 -2 -11
150 -2 -11
151 -2 -11
152 -2 -11
153 -13 -3
154 -13 -3
155 -13 -3
156 -13 -3
157 -13 -3
158 -13 -3
159 -31 6
160 -31 6
161 -31 6
162 -31 6
163 25 -28
164 25 -28
165 25 -28
166 6 -49
167 6 -49
168 6 -49
169 32 -42
170 32 -42
171 32 -42
172 32 -42
173 17 7
174 17 7
175 17 7
176 4 -42
177 4 -42
178 -39 -42
179 -39 -42
180 -39 -42
181 -39 -42
182 -39 -42
183 -39 -42
184 -34 24
185 -34 24
186 -34 24
187 -34 24
188 -34 24
189 46 40
190 46 40
191 46 40
192 46 40
193 46 40
194 48 -21
195 48 -21
196 48 -21
197 48 -21
198 48 -21
199 48 -21
200 36 -1
201 36 -1
202 36 -1
203 42 -4
204 42 -4
205 42 -4
206 42 -4
207 42 -4
208 -5 -11
209 -5 -11
210 -5 -11
211 -5 -11
212 -5 -11
213 -5 -11
214 -5 -11
215 -5 -11
216 -14 -44
217 -14 -44
218 -14 -44
219 -14 -44
220 -14 -44
221 -14 -44
222 21 -14
223 21 -14
224 21 -14
225 21 -14
226 -14 -47
227 -14 -47
228 -14 -47
229 -14 -47
230 -14 -47
231 -14 -47
232 -14 -47
233 31 -13
234 31 -13
235 31 -13
236 31 -13
237 31 -13
238 31 -13
239 -1 -5
240 -1 -5
241 -1 -5
242 -1 -5
243 -1 -5
244 -48 -11
245 -48 -11
246 46 -26
247 46 -26
248 46 -26
249 46 -26
250 46 -26
251 -4 -3
252 -4 -3
253 -4 -3
254 -4 -3
255 -4 -3
256 -4 -3
257 11 -48
258 11 -48
259 11 -48
260 11 -48
261 11 -48
262 41 4
263 41 4
264 41 4
265 41 4
266 -36 7
267 -36 7
268 -36 7
269 -36 7
270 -36 7
271 -36 7
272 -36 7
273 16 36
274 16 36
275 16 36
276 16 36
277 16 36
278 38 42
279 38 42
280 38 42
281 -20 45
282 -20 45
283 -20 45
284 -20 45
285 -48 27
286 -48 27
287 -48 27
288 -48 27
289 -48 27
290 -48 27
291 34 34
292 34 34
293 -17 40
294 -17 40
295 -17 40
296 -17 40
297 0 -10
298 0 -10
299 0 -10
300 0 -10
301 0 -10
302 -41 -5
303 -41 -5
304 -41 -5
305 -41 -5
306 43 40
307 43 40
308 43 40
309 43 40
310 43 40
311 2 15
312 2 15
313 2 15
314 2 15
315 2 15
316 2 15
317 2 15
318 15 24
319 15 24
320 15 24
321 -18 23
322 -18 23
323 -18 23
324 -18 23
325 -18 23
326 -18 23
327 -41 46
328 -41 46
329 -41 46
330 -41 46
331 -32 -48
332 -32 -48
333 -32 -48
334 -32 -48
335 -32 -48
336 -32 -48
337 -48 23
338 -48 23
339 5 -17
340 5 -17
341 5 -17
342 5 -17
343 5 -17
344 15 8
345 15 8
346 15 8
347 15 8
348 15 8
349 1 -17
350 1 -17
351 18 -28
352 18 -28
353 18 -28
354 -44 49
355 -44 49
356 -44 49
357 -44 49
358 -44 49
359 44 7
360 44 7
361 44 7
362 44 7
363 44 7
364 44 7
365 36 -25
366 36 -25
367 36 -25
368 23 4
369 23 4
370 -15 -7
371 -15 -7
372 -15 -7
373 -15 -7
374 -15 -7
375 9 26
376 9 26
377 9 26
378 9 26
379 9 26
380 9 26
381 37 33
382 37 33
383 37 33
384 37 33
385 19 -22
386 19 -22
387 19 -22
388 19 -22
389 19 -22
390 19 -22
391 -42 -45
392 -42 -45
393 -42 -45
394 -42 -45
395 -42 -45
396 -42 -45
397 41 21
398 41 21
399 41 21
400 41 21
401 -2 -22
402 -2 -22
403 -2 -22
404 24 -2
405 24 -2
406 24 -2
407 24 -2
408 24 -2
409 44 38
410 44 38
411 44 38
412 44 38
413 44 38
414 0 -36
415 0 -36
416 0 -36
417 0 -36
418 0 -36
419 0 -36
420 -13 -38
421 -13 -38
422 -13 -38
423 26 41
424 26 41
425 26 41
426 26 41
427 26 41
428 26 41
429 -5 40
430 -5 40
431 -1 11
432 -1 11
433 -1 11
434 -1 11
435 -1 11
436 -1 11
437 -1 11
438 34 29
439 34 29
440 34 29
441 34 29
442 34 29
443 34 29
444 13 -44
445 13 -44
446 13 -44
447 13 -44
448 13 -44
449 13 -44
450 21 -23
451 21 -23
452 21 -23
453 -41 23
454 -41 23
455 -41 23
456 -41 23
457 -30 -30
458 -30 -30
459 -30 -30
460 28 -12
461 28 -12
462 28 -12
463 28 -12
464 28 -12
465 28 -12
466 28 23
467 28 23
468 28 23
469 28 23
470 28 23
471 -32 31
472 -32 31
473 -32 31
474 -32 31
475 -32 31
476 -32 31
477 -32 31
478 6 -4
479 6 -4
480 6 -4
481 6 -4
482 6 -4
483 30 -24
484 30 -24
485 30 -24
486 -38 44
487 -38 44
488 -38 44
489 -38 44
490 6 -41
491 6 -41
492 6 -41
493 4 24
494 4 24
495 4 24
496 4 24
497 4 24
498 4 24
499 4 24
500 22 30
501 22 30
502 22 30
503 22 30
504 22 30
505 22 30
506 -7 14
507 -7 14
508 -7 14
509 -7 14
510 -7 14
511 -14 -49
512 -14 -49
513 -14 -49
514 -12 -19
515 -12 -19
516 -12 -19
517 -12 -19
518 -12 -19
519 38 -18
520 38 -18
521 38 -18
522 38 -18
523 38 -18
524 38 -18
525 -27 -16
526 -27 -16
527 -27 -16
528 -27 -16
529 -27 -16
530 -27 -16
531 45 -30
532 45 -30
533 45 -30
534 45 -30
535 45 -30
536 45 -30
537 -9 41
538 -9 41
539 -9 41
540 -9 41
541 -6 39
542 -6 39
543 -6 39
544 -6 39
545 -6 39
546 22 9
547 22 9
548 22 9
549 22 9
550 -18 -31
551 -18 -31
552 -18 -31
553 -18 -31
554 -18 -31
555 -39 29
556 -39 29
557 -5 -9
558 -5 -9
559 -5 -9
560 -5 -9
561 23 -50
562 23 -50
563 23 -50
564 23 -50
565 23 -50
566 23 -50
567 -42 42
568 -42 42
569 -42 42
570 -42 42
571 -19 43
572 -19 43
573 -19 43
574 -19 43
575 -19 43
576 27 -22
577 27 -22
578 27 -22
579 27 -22
580 -33 -7
581 -33 -7
582 -33 -7
583 -33 -7
584 -33 -7
585 -33 -7
586 -33 -7
587 -33 -7
588 45 -50
589 45 -50
590 45 -50
591 45 -50
592 45 -50
593 11 20
594 11 20
595 11 20
596 11 20
597 11 20
598 32 36
599 32 36
600 32 36
601 32 36
602 32 36
603 -39 -41
604 -39 -41
605 -39 -41
606 -39 -41
607 -39 -41
608 -39 -41
609 37 -26
610 37 -26
611 37 -26
612 37 -26
613 37 -26
614 -22 15
615 -22 15
616 -22 15
617 -22 15
618 -22 15
619 -6 25
620 -6 25
621 -6 25
622 -6 25
623 -6 25
624 -37 37
625 -37 37
626 -37 37
627 -37 37
628 -37 37
629 -37 37
630 -37 37
631 34 12
632 34 12
633 28 -22
634 28 -22
635 28 -22
636 28 -22
637 9 48
638 9 48
639 9 48
640 9 48
641 -1 -29
642 -1 -29
643 -1 -29
644 -43 -26
645 -43 -26
646 -10 1
647 -10 1
648 -44 9
649 -44 9
650 -44 9
651 -44 9
652 -44 9
653 -44 9
654 11 1
655 11 1
656 11 1
657 11 1
658 11 1
659 43 -39
660 43 -39
661 43 -39
662 43 -39
663 43 -39
664 43 -39
665 43 -39
666 -34 38
667 -34 38
668 -34 38
669 -34 38
670 -34 38
671 -34 38
672 -34 38
673 -34 38
674 -26 -11
675 -26 -11
676 -26 -11
677 -26 -11
678 -26 -11
679 -26 -11
680 -43 34
681 -43 34
682 -43 34
683 -43 34
684 -43 34
685 -43 34
686 -43 34
687 -13 11
688 -13 11
689 -13 11
690 -13 11
691 -13 11
692 -13 11
693 -13 11
694 15 -2
695 15 -2
696 15 -2
697 34 5
698 34 5
699 34 5
700 34 5
701 -9 33
702 -9 33
703 -9 33
704 -49 -3
705 -49 -3
706 -49 -3
707 -10 1
708 -10 1
709 -10 1
710 -10 1
711 -10 1
712 -10 1
713 -10 1
714 35 16
715 35 16
716 35 16
717 35 16
718 -2 -4
719 -2 -4
720 -2 -4
721 -2 -4
722 -2 -4
723 3 -15
724 3 -15
725 3 -15
726 3 -15
727 3 -15
728 18 24
729 18 24
730 18 24
731 -38 26
732 -38 26
733 -38 26
734 -1 29
735 -1 29
736 -1 29
737 -1 29
738 -11 -42
739 -11 -42
740 -11 -42
741 -11 -42
742 -11 -42
743 -11 -42
744 -11 -42
745 -45 16
746 -45 16
747 -45 16
748 -45 16
749 -45 16
750 2 36
751 2 36
752 31 30
753 31 30
754 31 30
755 31 30
756 31 30
757 31 30
758 31 30
759 -31 21
760 -31 21
761 -31 21
762 -31 21
763 -45 -17
764 -45 -17
765 -45 -17
766 -45 -17
767 -45 -17
768 -45 -17
769 34 -14
770 34 -14
771 34 -14
772 -30 44
773 -30 44
774 -30 44
775 -19 35
776 -19 35
777 -19 35
778 39 43
779 39 43
780 39 43
781 39 43
782 39 43
783 39 43
784 -49 37
785 -49 37
786 -49 37
787 -45 20
788 -45 20
789 -45 20
790 -45 20
791 -45 20
792 -45 20
793 -45 20
794 -49 -30
795 -49 -30
796 -49 -30
797 -49 -30
798 33 2
799 33 2
800 33 2
801 33 2
802 -28 -20
803 -28 -20
804 -28 -20
805 27 24
806 27 24
807 27 24
808 27 24
809 27 24
810 -34 27
811 -34 27
812 -34 27
813 -34 27
814 -26 18
815 -26 18
816 -5 -22
817 -5 -22
818 -5 -22
819 -5 -22
820 -5 -22
821 -31 -36
822 -31 -36
823 -31 -36
824 -31 -36
825 -31 -36
826 -13 -33
827 -13 -33
828 -13 -33
829 -13 -33
830 -13 -33
831 -13 -33
832 -36 14
833 -36 14
834 -36 14
835 -36 14
836 -36 14
837 -7 11
838 -7 11
839 -7 11
840 -49 -6
841 -49 -6
842 -49 -6
843 28 -6
844 28 -6
845 28 -6
846 28 -6
847 28 -6
848 -44 11
849 -44 11
850 -44 11
851 -44 11
852 -44 11
853 24 -6
854 24 -6
855 24 -6
856 24 -6
857 42 -42
858 42 -42
859 42 -42
860 -22 -24
861 -22 -24
862 -22 -24
863 -22 -24
864 -22 -24
865 1 -17
866 1 -17
867 1 -17
868 1 -17
869 20 -35
870 20 -35
871 -35 -3
872 -35 -3
873 -35 -3
874 -35 -3
875 -35 -3
876 -38 -27
877 -38 -27
878 -38 -27
879 -38 -27
880 29 -49
881 29 -49
882 29 -49
883 29 -49
884 -13 -38
885 -13 -38
886 -13 -38
887 -13 -38
888 -13 -38
889 -13 -38
890 6 18
891 6 18
892 6 18
893 6 18
894 6 18
895 6 18
896 -17 -41
897 -17 -41
898 -17 -41
899 -17 -41
900 -17 -41
901 -17 -41
902 19 11
903 19 11
904 19 11
905 -12 -36
906 -12 -36
907 -12 -36
908 1 -8
909 1 -8
910 1 -8
911 1 -8
912 1 -8
913 1 -8
914 12 25
915 12 25
916 12 25
917 12 25
918 12 25
919 12 25
920 12 25
DEMAND_SECTION
1 0
2 40
3 40
4 10
5 2
6 2
7 2
8 40
9 40
10 10
11 2
12 2
13 1
14 40
15 10
16 2
17 2
18 40
19 40
20 10
21 2
22 2
23 2
24 2
25 40
26 40
27 40
28 20
29 2
30 2
31 2
32 2
33 1
34 40
35 20
36 2
37 2
38 2
39 2
40 20
41 2
42 2
43 2
44 40
45 10
46 2
47 1
48 40
49 40
50 10
51 1
52 40
53 20
54 2
55 1
56 40
57 40
58 2
59 40
60 20
61 2
62 2
63 2
64 1
65 40
66 10
67 2
68 2
69 2
70 1
71 40
72 2
73 2
74 2
75 2
76 20
77 10
78 2
79 2
80 2
81 2
82 1
83 40
84 10
85 2
86 20
87 2
88 2
89 2
90 1
91 40
92 10
93 40
94 20
95 2
96 2
97 2
98 2
99 40
100 20
101 2
102 2
103 2
104 1
105 40
106 10
107 2
108 40
109 40
110 10
111 2
112 2
113 2
114 2
115 40
116 40
117 10
118 2
119 40
120 40
121 40
122 1
123 40
124 10
125 2
126 1
127 40
128 40
129 2
130 2
131 40
132 2
133 2
134 1
135 40
136 20
137 2
138 2
139 2
140 2
141 40
142 40
143 2
144 1
145 40
146 40
147 10
148 2
149 2
150 2
151 2
152 1
153 40
154 20
155 10
156 2
157 2
158 1
159 40
160 40
161 2
162 1
163 40
164 10
165 1
166 40
167 40
168 20
169 40
170 20
171 10
172 1
173 40
174 20
175 10
176 40
177 40
178 40
179 20
180 2
181 2
182 2
183 2
184 20
185 10
186 2
187 2
188 1
189 40
190 20
191 2
192 2
193 1
194 40
195 10
196 2
197 2
198 2
199 1
200 40
201 10
202 1
203 40
204 20
205 2
206 2
207 1
208 40
209 40
210 10
211 2
212 2
213 2
214 2
215 1
216 40
217 20
218 10
219 2
220 2
221 1
222 40
223 2
224 2
225 2
226 40
227 40
228 10
229 2
230 2
231 2
232 2
233 40
234 10
235 2
236 2
237 2
238 1
239 40
240 10
241 2
242 2
243 1
244 40
245 10
246 40
247 20
248 10
249 2
250 1
251 40
252 20
253 2
254 2
255 2
256 2
257 40
258 10
259 2
260 2
261 1
262 20
263 2
264 2
265 1
266 40
267 20
268 10
269 2
270 2
271 2
272 1
273 40
274 2
275 2
276 2
277 1
278 40
279 10
280 2
281 20
282 10
283 2
284 1
285 40
286 20
287 2
288 2
289 2
290 2
291 20
292 10
293 40
294 2
295 2
296 1
297 40
298 40
299 10
300 2
301 2
302 40
303 20
304 2
305 2
306 40
307 40
308 10
309 2
310 1
311 40
312 20
313 2
314 2
315 2
316 2
317 1
318 40
319 20
320 10
321 20
322 2
323 2
324 2
325 2
326 1
327 40
328 20
329 2
330 1
331 40
332 10
333 2
334 2
335 2
336 2
337 40
338 20
339 40
340 40
341 10
342 2
343 2
344 40
345 20
346 2
347 2
348 1
349 40
350 40
351 20
352 10
353 2
354 40
355 2
356 2
357 2
358 1
359 40
360 40
361 10
362 2
363 2
364 2
365 40
366 40
367 10
368 40
369 2
370 40
371 20
372 10
373 2
374 1
375 40
376 20
377 2
378 2
379 2
380 1
381 40
382 40
383 10
384 2
385 20
386 10
387 2
388 2
389 2
390 1
391 40
392 20
393 2
394 2
395 2
396 2
397 20
398 10
399 2
400 1
401 40
402 40
403 10
404 20
405 2
406 2
407 2
408 2
409 20
410 2
411 2
412 2
413 1
414 40
415 40
416 10
417 2
418 2
419 1
420 40
421 40
422 20
423 40
424 40
425 10
426 2
427 2
428 1
429 40
430 1
431 40
432 20
433 10
434 2
435 2
436 2
437 2
438 40
439 40
440 2
441 2
442 2
443 2
444 40
445 20
446 10
447 2
448 2
449 1
450 40
451 10
452 2
453 40
454 20
455 2
456 2
457 40
458 2
459 1
460 40
461 20
462 2
463 2
464 2
465 1
466 20
467 10
468 2
469 2
470 1
471 20
472 10
473 2
474 2
475 2
476 2
477 1
478 40
479 20
480 2
481 2
482 1
483 40
484 20
485 1
486 40
487 10
488 2
489 2
490 40
491 40
492 20
493 40
494 40
495 10
496 2
497 2
498 2
499 1
500 40
501 40
502 2
503 2
504 2
505 2
506 20
507 10
508 2
509 2
510 2
511 20
512 10
513 2
514 20
515 2
516 2
517 2
518 2
519 40
520 40
521 2
522 2
523 2
524 1
525 20
526 2
527 2
528 2
529 2
530 1
531 20
532 10
533 2
534 2
535 2
536 1
537 20
538 10
539 2
540 1
541 40
542 2
543 2
544 2
545 1
546 40
547 2
548 2
549 2
550 40
551 20
552 2
553 2
554 2
555 40
556 40
557 40
558 40
559 2
560 2
561 40
562 10
563 2
564 2
565 2
566 2
567 20
568 2
569 2
570 2
571 40
572 40
573 10
574 2
575 1
576 40
577 40
578 10
579 2
580 40
581 20
582 10
583 2
584 2
585 2
586 2
587 1
588 40
589 2
590 2
591 2
592 1
593 20
594 2
595 2
596 2
597 1
598 40
599 20
600 2
601 2
602 1
603 40
604 20
605 10
606 2
607 2
608 2
609 40
610 40
611 2
612 2
613 1
614 40
615 40
616 2
617 2
618 1
619 40
620 20
621 10
622 2
623 1
624 40
625 20
626 10
627 2
628 2
629 2
630 1
631 40
632 20
633 40
634 20
635 10
636 2
637 40
638 2
639 2
640 2
641 40
642 20
643 1
644 40
645 2
646 40
647 20
648 40
649 20
650 2
651 2
652 2
653 1
654 20
655 10
656 2
657 2
658 2
659 40
660 40
661 10
662 2
663 2
664 2
665 2
666 40
667 40
668 10
669 2
670 2
671 2
672 2
673 1
674 40
675 40
676 10
677 2
678 2
679 1
680 40
681 40
682 2
683 2
684 2
685 2
686 1
687 40
688 40
689 2
690 2
691 2
692 2
693 1
694 40
695 40
696 10
697 20
698 2
699 2
700 2
701 40
702 2
703 1
704 40
705 10
706 2
707 40
708 10
709 2
710 2
711 2
712 2
713 1
714 20
715 10
716 2
717 2
718 40
719 10
720 2
721 2
722 1
723 40
724 2
725 2
726 2
727 2
728 20
729 10
730 1
731 40
732 40
733 1
734 20
735 10
736 2
737 1
738 40
739 20
740 10
741 2
742 2
743 2
744 1
745 20
746 10
747 2
748 2
749 1
750 40
751 40
752 20
753 10
754 2
755 2
756 2
757 2
758 1
759 40
760 2
761 2
762 2
763 20
764 10
765 2
766 2
767 2
768 1
769 20
770 10
771 2
772 40
773 2
774 2
775 40
776 2
777 2
778 20
779 10
780 2
781 2
782 2
783 1
784 20
785 10
786 2
787 40
788 10
789 2
790 2
791 2
792 2
793 1
794 40
795 20
796 10
797 2
798 40
799 10
800 2
801 1
802 40
803 40
804 20
805 20
806 2
807 2
808 2
809 1
810 40
811 2
812 2
813 2
814 40
815 40
816 20
817 10
818 2
819 2
820 2
821 40
822 20
823 2
824 2
825 2
826 40
827 40
828 10
829 2
830 2
831 1
832 40
833 40
834 10
835 2
836 1
837 40
838 20
839 1
840 20
841 10
842 1
843 40
844 2
845 2
846 2
847 1
848 40
849 20
850 10
851 2
852 1
853 20
854 2
855 2
856 2
857 20
858 10
859 1
860 20
861 10
862 2
863 2
864 1
865 40
866 20
867 10
868 1
869 40
870 10
871 40
872 20
873 10
874 2
875 1
876 40
877 2
878 2
879 2
880 40
881 20
882 10
883 2
884 20
885 2
886 2
887 2
888 2
889 1
890 20
891 10
892 2
893 2
894 2
895 2
896 40
897 40
898 2
899 2
900 2
901 2
902 40
903 20
904 1
905 20
906 10
907 2
908 20
909 10
910 2
911 2
912 2
913 2
914 40
915 40
916 2
917 2
918 2
919 2
920 1
DEPOT_SECTION
1
-1
EOF