SDVRP instances/custom_instances/p10_22_split0.sol
919 -9 7 10 8 12 11 355 356 354 353 357 328 329 485 487 486 488 672 -17 19 22 18 23 350 351 352 16 14 15 13 384 -21 20 869 868 140 143 142 141 560 563 562 561 565 564 -40 42 39 41 74 73 72 70 71 445 444 443 446 448 447 131 133 132 130 -54 53 52 51 492 495 498 496 493 494 497 889 891 893 894 892 890 -57 56 55 278 279 277 778 780 777 779 781 782 87 86 89 85 88 -81 75 80 79 78 77 76 773 772 771 281 282 283 280 571 539 537 536 538 542 544 541 543 -82 864 866 83 349 865 348 -98 370 371 373 369 372 153 155 157 156 152 154 -103 101 100 102 99 768 770 769 519 518 43 45 46 44 855 853 854 -106 104 105 758 814 813 -108 109 107 112 113 110 111 703 705 704 839 840 841 244 -115 116 114 531 534 530 535 532 533 249 248 247 245 246 -117 589 590 587 591 588 856 857 858 661 659 664 662 663 658 660 478 479 -123 124 94 95 93 96 97 92 201 200 199 204 205 206 202 203 -151 147 146 739 742 741 740 738 737 743 220 216 898 899 895 900 897 896 -159 301 304 303 302 870 871 874 873 872 -160 161 158 269 267 271 270 265 266 268 648 652 647 651 650 649 -170 169 171 168 69 68 66 67 65 64 881 879 880 882 -172 174 173 901 903 902 346 345 343 344 347 -179 180 181 177 178 182 394 395 390 393 392 391 332 333 330 331 334 335 -184 187 183 186 730 732 554 555 809 812 811 810 -185 731 454 452 453 455 832 831 835 834 833 -223 224 222 221 459 236 237 234 232 235 844 843 846 845 842 852 -241 242 240 238 239 910 911 47 50 49 48 477 481 480 -243 762 766 765 767 763 764 793 794 795 796 643 644 -251 255 252 254 253 250 706 710 646 708 707 709 645 711 712 -257 256 258 259 260 167 165 166 489 -296 300 298 725 726 722 723 724 339 341 340 338 342 -306 307 308 305 309 190 192 188 191 189 412 411 409 410 408 466 467 469 -315 316 313 314 312 310 311 58 60 63 62 59 61 431 436 430 -317 318 499 503 501 500 804 808 806 805 807 465 468 -321 322 325 324 776 774 775 570 572 574 573 295 294 292 293 701 700 702 -323 320 671 668 666 667 665 670 669 629 623 628 627 625 626 624 476 474 -326 327 566 567 569 568 24 25 784 785 783 -336 119 118 337 792 789 790 788 786 787 791 -364 365 366 609 608 611 612 610 633 635 -368 367 121 120 631 630 548 546 545 547 -374 377 378 376 379 375 918 917 914 919 913 319 592 593 596 594 595 -386 389 385 387 388 163 164 162 135 134 138 136 137 139 482 484 483 -413 885 887 883 419 420 886 421 884 904 905 906 -418 414 415 416 417 176 175 491 490 -422 423 427 34 38 35 33 37 36 276 274 273 275 272 916 915 -433 435 432 434 620 622 619 621 618 508 505 506 509 507 838 837 836 -442 439 382 381 380 383 290 291 26 27 32 31 28 29 30 502 504 -450 449 451 577 578 575 576 634 632 -463 462 464 460 461 233 193 195 196 197 194 198 5 6 2 3 1 4 522 523 520 521 -470 473 472 475 471 683 685 684 679 682 681 680 289 284 288 286 287 285 761 759 760 -511 510 512 229 225 227 231 228 230 226 219 217 215 218 888 -516 514 517 513 515 550 551 553 552 549 826 825 829 827 830 828 -525 528 527 526 878 877 875 876 606 603 602 604 607 605 823 824 821 820 822 -529 524 803 801 802 457 456 458 859 860 863 862 861 -540 429 428 749 750 736 733 735 734 -559 558 557 556 208 213 212 214 207 210 211 209 720 721 718 719 -580 586 583 579 582 585 584 581 673 678 677 676 674 675 -617 615 616 614 613 689 690 688 692 686 691 687 -638 636 637 639 90 91 424 426 425 601 598 597 599 600 727 729 -656 655 654 653 657 122 125 406 404 407 405 403 694 693 695 -696 697 698 699 359 361 363 362 360 358 264 262 261 263 797 799 800 798 -714 716 713 715 397 399 398 396 437 440 441 438 752 751 753 757 756 755 754 728 -717 145 150 148 149 144 297 299 907 908 -748 746 744 745 747 127 128 129 126 850 851 847 848 849 -819 815 816 818 817 641 642 640 401 402 400 84 867 912 909 0 





OBJ=
5474.646
BEST_KNOWN=
0.000